NAME : Problem-5-10-C
TYPE : HVRP
DIMENSION : 11
EDGE_WEIGHT_TYPE : EUC_2D

NODE_COORD_SECTION
1 20 20
2 37 52
4 52 64
5 20 26
6 40 30
9 31 62
12 42 41
16 36 16
19 17 33
20 13 13
21 57 58

DEMAND_SECTION
1 0
2 7
4 16
5 9
6 21
9 23
12 19
16 10
19 41
20 9
21 28

VEHICLE_TYPES
# id capacity fixed_cost var_cost
A 20 20 1 
B 30 35 1 
C 40 50 1
D 70 120 1
E 120 225 1 
END_VEHICLE_TYPES

DEPOT_SECTION
1
-1
EOF
